; 
(set-info :status unknown)
(declare-fun node_0x7ffff1e105f0 () (_ BitVec 64))
(declare-fun node_0x7ffff1e0d870 () (_ BitVec 1))
(declare-fun node_0x7ffff1e0e0e0 () (_ BitVec 1))
(declare-fun folt_0x7ffff1e340a0 () (_ BitVec 1))
(declare-fun fmul_0x7ffff1e33e70 () (_ BitVec 64))
(declare-fun node_0x7ffff1e33d40 () (_ BitVec 64))
(declare-fun LdMem_0x7ffff1e19050 () (_ BitVec 64))
(declare-fun node_0x7ffff1e33760 () (_ BitVec 64))
(declare-fun node_0x7ffff1e32c60 () (_ BitVec 64))
(declare-fun LdMem_0x7ffff1e32e00 () (_ BitVec 64))
(declare-fun StMem_0x7ffff1e1bf20 () (_ BitVec 64))
(declare-fun R0x7ffff1e08390 () (_ BitVec 1))
(declare-fun node_0x7ffff1e1b720 () (_ BitVec 64))
(declare-fun fsub_0x7ffff1e1b8c0 () (_ BitVec 64))
(declare-fun fmul_0x7ffff1e1b4f0 () (_ BitVec 64))
(declare-fun node_0x7ffff1e1b370 () (_ BitVec 64))
(declare-fun node_0x7ffff1e1af20 () (_ BitVec 64))
(declare-fun node_0x7ffff1e1a650 () (_ BitVec 64))
(declare-fun si2f_0x7ffff1e1a7f0 () (_ BitVec 64))
(declare-fun node_0x7ffff1e197c0 () (_ BitVec 32))
(declare-fun f2si_0x7ffff1e19960 () (_ BitVec 32))
(declare-fun node_0x7ffff1e193a0 () (_ BitVec 64))
(declare-fun fdiv_0x7ffff1e19540 () (_ BitVec 64))
(declare-fun LdMem_0x7ffff1e18170 () (_ BitVec 64))
(declare-fun node_0x7ffff1e17fd0 () (_ BitVec 64))
(declare-fun node_0x7ffff1e18ed0 () (_ BitVec 64))
(declare-fun parg_node_0x18a037e0 () (_ BitVec 64))
(declare-fun StMem_0xb37f220 () (_ BitVec 64))
(declare-fun node_0x7ffff1e1a1e0 () (_ BitVec 64))
(declare-fun pcso_node_0x18a02b80 () (_ BitVec 64))
(declare-fun StMem_0x18a02d30 () (_ BitVec 64))
(declare-fun pcso_node_0x18a00f10 () (_ BitVec 64))
(declare-fun StMem_0xb3749e0 () (_ BitVec 64))
(declare-fun pcso_node_0x189fdb80 () (_ BitVec 64))
(declare-fun StMem_0x189fdd30 () (_ BitVec 64))
(declare-fun pcso_node_0x189fb880 () (_ BitVec 64))
(declare-fun StMem_0x189fb9c0 () (_ BitVec 64))
(declare-fun R0x7ffff1e0ae50 () (_ BitVec 1))
(declare-fun R0x7ffff1e0a180 () (_ BitVec 1))
(declare-fun R0xb2e9c60 () (_ BitVec 1))
(declare-fun and_0xb3a4900 () (_ BitVec 1))
(declare-fun R0xb3a4670 () (_ BitVec 1))
(declare-fun and_0xb3a58c0 () (_ BitVec 1))
(declare-fun R0xb3a5530 () (_ BitVec 1))
(declare-fun node_0x7ffff1e091e0 () (_ BitVec 1))
(declare-fun R0x7ffff1e09490 () (_ BitVec 1))
(declare-fun R0xb3a5000 () (_ BitVec 1))
(declare-fun R0xb3a5b80 () (_ BitVec 1))
(declare-fun and_0xb3a61b0 () (_ BitVec 1))
(declare-fun R0x7ffff1e097d0 () (_ BitVec 1))
(declare-fun and_0xb3a52e0 () (_ BitVec 1))
(declare-fun xor_0xb3a4d80 () (_ BitVec 1))
(declare-fun R0xb3a4ba0 () (_ BitVec 1))
(declare-fun and_0x7ffff1e0a500 () (_ BitVec 1))
(declare-fun node_0x7ffff1e09cd0 () (_ BitVec 1))
(declare-fun R0x7ffff1e09ec0 () (_ BitVec 1))
(declare-fun xor_0xb3a4530 () (_ BitVec 1))
(declare-fun and_0x7ffff1e0b1d0 () (_ BitVec 1))
(declare-fun xor_0x7ffff1e0ab80 () (_ BitVec 1))
(declare-fun R0x7ffff1e0a970 () (_ BitVec 1))
(declare-fun ieq_0x7ffff1e147c0 () (_ BitVec 1))
(declare-fun LdMem_0x7ffff1e11b60 () (_ BitVec 32))
(declare-fun node_0x7ffff1e14250 () (_ BitVec 32))
(declare-fun xor_0x7ffff1e099e0 () (_ BitVec 1))
(declare-fun ieq_0x7ffff1e11de0 () (_ BitVec 1))
(declare-fun node_0x7ffff1e119e0 () (_ BitVec 32))
(declare-fun parg_node_0x189fc080 () (_ BitVec 32))
(declare-fun StMem_0x189fbf70 () (_ BitVec 32))
(declare-fun folt_0x7ffff1e35b10 () (_ BitVec 1))
(declare-fun fmul_0x7ffff1e358e0 () (_ BitVec 64))
(declare-fun node_0x7ffff1e357b0 () (_ BitVec 64))
(declare-fun node_0x7ffff1e35220 () (_ BitVec 64))
(declare-fun node_0x7ffff1e34890 () (_ BitVec 64))
(declare-fun LdMem_0x7ffff1e34a30 () (_ BitVec 64))
(declare-fun pcso_node_0x18a03b90 () (_ BitVec 64))
(declare-fun StMem_0x18a03cd0 () (_ BitVec 64))
(declare-fun node_0x7ffff1e2edf0 () (_ BitVec 64))
(declare-fun StMem_0x7ffff1e2f5c0 () (_ BitVec 64))
(declare-fun fsub_0x7ffff1e2ef90 () (_ BitVec 64))
(declare-fun node_0x7ffff1e2ea40 () (_ BitVec 64))
(declare-fun node_0x7ffff1e2d800 () (_ BitVec 64))
(declare-fun fadd_0x7ffff1e2d9a0 () (_ BitVec 64))
(declare-fun LdMem_0x7ffff1e1e6c0 () (_ BitVec 64))
(declare-fun node_0x7ffff1e2c280 () (_ BitVec 64))
(declare-fun node_0x7ffff1e2d450 () (_ BitVec 64))
(declare-fun fmul_0x7ffff1e2d5d0 () (_ BitVec 64))
(declare-fun LdMem_0x7ffff1e255b0 () (_ BitVec 64))
(declare-fun node_0x7ffff1e2d000 () (_ BitVec 64))
(declare-fun node_0x7ffff1e2c6f0 () (_ BitVec 64))
(declare-fun ccso_node_0x7ffff1e1d2c0 () (_ BitVec 32))
(declare-fun si2f_0x7ffff1e2c890 () (_ BitVec 64))
(declare-fun fmul_0x7ffff1e2ebc0 () (_ BitVec 64))
(declare-fun LdMem_0x7ffff1e2b370 () (_ BitVec 64))
(declare-fun node_0x7ffff1e2e5f0 () (_ BitVec 64))
(declare-fun node_0x7ffff1e2dbd0 () (_ BitVec 64))
(declare-fun si2f_0x7ffff1e2dd70 () (_ BitVec 64))
(declare-fun node_0x7ffff1e2bae0 () (_ BitVec 32))
(declare-fun f2si_0x7ffff1e2bc80 () (_ BitVec 32))
(declare-fun node_0x7ffff1e2b6c0 () (_ BitVec 64))
(declare-fun fdiv_0x7ffff1e2b860 () (_ BitVec 64))
(declare-fun node_0x7ffff1e2b1f0 () (_ BitVec 64))
(declare-fun parg_node_0x18a07580 () (_ BitVec 64))
(declare-fun StMem_0x18a07470 () (_ BitVec 64))
(declare-fun node_0x7ffff1e2a750 () (_ BitVec 64))
(declare-fun fadd_0x7ffff1e2a8f0 () (_ BitVec 64))
(declare-fun node_0x7ffff1e2a3a0 () (_ BitVec 64))
(declare-fun node_0x7ffff1e22b50 () (_ BitVec 64))
(declare-fun fmul_0x7ffff1e2a520 () (_ BitVec 64))
(declare-fun node_0x7ffff1e29f50 () (_ BitVec 64))
(declare-fun node_0x7ffff1e22fc0 () (_ BitVec 64))
(declare-fun node_0x7ffff1e28ed0 () (_ BitVec 64))
(declare-fun StMem_0x7ffff1e296a0 () (_ BitVec 64))
(declare-fun fsub_0x7ffff1e29070 () (_ BitVec 64))
(declare-fun node_0x7ffff1e28b20 () (_ BitVec 64))
(declare-fun node_0x7ffff1e279f0 () (_ BitVec 64))
(declare-fun fadd_0x7ffff1e27b90 () (_ BitVec 64))
(declare-fun node_0x7ffff1e26470 () (_ BitVec 64))
(declare-fun node_0x7ffff1e27640 () (_ BitVec 64))
(declare-fun fmul_0x7ffff1e277c0 () (_ BitVec 64))
(declare-fun LdMem_0x7ffff1e1efd0 () (_ BitVec 64))
(declare-fun node_0x7ffff1e271f0 () (_ BitVec 64))
(declare-fun node_0x7ffff1e268e0 () (_ BitVec 64))
(declare-fun si2f_0x7ffff1e26a80 () (_ BitVec 64))
(declare-fun fmul_0x7ffff1e28ca0 () (_ BitVec 64))
(declare-fun node_0x7ffff1e286d0 () (_ BitVec 64))
(declare-fun node_0x7ffff1e27dc0 () (_ BitVec 64))
(declare-fun si2f_0x7ffff1e27f60 () (_ BitVec 64))
(declare-fun node_0x7ffff1e25cd0 () (_ BitVec 32))
(declare-fun f2si_0x7ffff1e25e70 () (_ BitVec 32))
(declare-fun node_0x7ffff1e258b0 () (_ BitVec 64))
(declare-fun fdiv_0x7ffff1e25a50 () (_ BitVec 64))
(declare-fun node_0x7ffff1e25430 () (_ BitVec 64))
(declare-fun parg_node_0x18a070c0 () (_ BitVec 64))
(declare-fun StMem_0x18a06fb0 () (_ BitVec 64))
(declare-fun node_0x7ffff1e24900 () (_ BitVec 64))
(declare-fun fadd_0x7ffff1e24aa0 () (_ BitVec 64))
(declare-fun node_0x7ffff1e23d40 () (_ BitVec 64))
(declare-fun fmul_0x7ffff1e246d0 () (_ BitVec 64))
(declare-fun node_0x7ffff1e23920 () (_ BitVec 64))
(declare-fun si2f_0x7ffff1e23160 () (_ BitVec 64))
(declare-fun node_0x7ffff1e21400 () (_ BitVec 64))
(declare-fun StMem_0x7ffff1e21bf0 () (_ BitVec 64))
(declare-fun fsub_0x7ffff1e215a0 () (_ BitVec 64))
(declare-fun node_0x7ffff1e21050 () (_ BitVec 64))
(declare-fun node_0x7ffff1e1fee0 () (_ BitVec 64))
(declare-fun pcso_node_0x18a02f90 () (_ BitVec 64))
(declare-fun StMem_0x18a03140 () (_ BitVec 64))
(declare-fun pcso_node_0x18a01050 () (_ BitVec 64))
(declare-fun StMem_0xb3757c0 () (_ BitVec 64))
(declare-fun pcso_node_0x189fdf90 () (_ BitVec 64))
(declare-fun StMem_0x189fe140 () (_ BitVec 64))
(declare-fun pcso_node_0x189fbad0 () (_ BitVec 64))
(declare-fun StMem_0x189fbc10 () (_ BitVec 64))
(declare-fun fmul_0x7ffff1e211d0 () (_ BitVec 64))
(declare-fun node_0x7ffff1e20c50 () (_ BitVec 64))
(declare-fun node_0x7ffff1e20300 () (_ BitVec 64))
(declare-fun si2f_0x7ffff1e204a0 () (_ BitVec 64))
(declare-fun node_0x7ffff1e1f740 () (_ BitVec 32))
(declare-fun f2si_0x7ffff1e1f8e0 () (_ BitVec 32))
(declare-fun node_0x7ffff1e1f320 () (_ BitVec 64))
(declare-fun fdiv_0x7ffff1e1f4c0 () (_ BitVec 64))
(declare-fun node_0x7ffff1e1e520 () (_ BitVec 64))
(declare-fun node_0x7ffff1e1ee50 () (_ BitVec 64))
(declare-fun parg_node_0x18a06250 () (_ BitVec 64))
(declare-fun StMem_0x18a05c00 () (_ BitVec 64))
(declare-fun R0x7ffff1e0bb20 () (_ BitVec 1))
(declare-fun R0xb3acbc0 () (_ BitVec 1))
(declare-fun and_0xb3adb40 () (_ BitVec 1))
(declare-fun R0xb3ad7b0 () (_ BitVec 1))
(declare-fun R0x7ffff1e0d200 () (_ BitVec 1))
(declare-fun R0x7ffff1e0c5a0 () (_ BitVec 1))
(declare-fun R0xb3abd80 () (_ BitVec 1))
(declare-fun and_0xb3ac3e0 () (_ BitVec 1))
(declare-fun R0xb3ac0e0 () (_ BitVec 1))
(declare-fun R0xb3ad160 () (_ BitVec 1))
(declare-fun and_0xb3ad4f0 () (_ BitVec 1))
(declare-fun node_0x7ffff1e0b4c0 () (_ BitVec 1))
(declare-fun R0x7ffff1e0b6f0 () (_ BitVec 1))
(declare-fun and_0xb3acf10 () (_ BitVec 1))
(declare-fun xor_0xb3ac8d0 () (_ BitVec 1))
(declare-fun R0xb3ac6f0 () (_ BitVec 1))
(declare-fun and_0x7ffff1e0c920 () (_ BitVec 1))
(declare-fun node_0x7ffff1e0c050 () (_ BitVec 1))
(declare-fun R0x7ffff1e0c280 () (_ BitVec 1))
(declare-fun xor_0xb3abf60 () (_ BitVec 1))
(declare-fun and_0x7ffff1e0d580 () (_ BitVec 1))
(declare-fun xor_0x7ffff1e0cf30 () (_ BitVec 1))
(declare-fun R0x7ffff1e0cd20 () (_ BitVec 1))
(declare-fun ieq_0x7ffff1e223c0 () (_ BitVec 1))
(declare-fun node_0x7ffff1e21fc0 () (_ BitVec 32))
(declare-fun srem_0x7ffff1e22160 () (_ BitVec 32))
(declare-fun xor_0x7ffff1e0bd30 () (_ BitVec 1))
(declare-fun ieq_0x7ffff1e1dd50 () (_ BitVec 1))
(declare-fun node_0x7ffff1e1d930 () (_ BitVec 32))
(declare-fun srem_0x7ffff1e1dad0 () (_ BitVec 32))
(declare-fun node_0x18a054b0 () (_ BitVec 32))
(declare-fun parg_node_0xb398ed0_CS0x42ed9a0 () (_ BitVec 32))
(declare-fun LdMem_0x18a04e60 () (_ BitVec 32))
(declare-fun parg_node_0x18a05180 () (_ BitVec 32))
(declare-fun StMem_0x18a04fd0 () (_ BitVec 32))
(declare-fun return_node_0x7ffff1e429b0_CS0x42ed9a0 () (_ BitVec 32))
(declare-fun node_0xfd66af0_CS0x42eafc0 () (_ BitVec 64))
(declare-fun node_0x7ffff1e12570 () (_ BitVec 64))
(declare-fun carg_node_0x7ffff1c37920_CS0x42eb808 () (_ BitVec 64))
(declare-fun ccso_node_0x7ffff1e0d9c0 () (_ BitVec 64))
(declare-fun fadd_0x7ffff1e12710 () (_ BitVec 64))
(declare-fun node_0xfe2db50_CS0x42eb808 () (_ BitVec 64))
(declare-fun node_0x7ffff1e15140 () (_ BitVec 64))
(declare-fun carg_node_0x7ffff1c37920_CS0x42ec0f8 () (_ BitVec 64))
(declare-fun ccso_node_0x7ffff1e14d60 () (_ BitVec 64))
(declare-fun fadd_0x7ffff1e152e0 () (_ BitVec 64))
(declare-fun node_0xfe2db50_CS0x42ec0f8 () (_ BitVec 64))
(declare-fun carg_node_0x7ffff1c37920_CS0x42ec5f8 () (_ BitVec 64))
(declare-fun node_0xfe2db50_CS0x42ec5f8 () (_ BitVec 64))
(declare-fun node_0xfd66e40_CS0x42eafc0 () (_ BitVec 64))
(assert
 (and (distinct node_0x7ffff1e105f0 (_ bv0 64)) true))
(assert
 (let (($x105 (= node_0x7ffff1e0d870 (_ bv1 1))))
 (let (($x108 (not $x105)))
 (let (($x107 (= node_0x7ffff1e0e0e0 (_ bv1 1))))
 (let (($x962 (not $x107)))
 (and $x962 $x108))))))
(assert
 (let (($x53534 (= node_0x7ffff1e0d870 folt_0x7ffff1e340a0)))
 (let (($x290 (or (or (= (_ bv0 64) (_ bv0 64)) (= node_0x7ffff1e33760 (_ bv0 64))) (and (distinct fmul_0x7ffff1e33e70 (_ bv0 64)) true))))
 (let (($x291 (and (= fmul_0x7ffff1e33e70 (bvmul (_ bv0 64) node_0x7ffff1e33760)) $x290)))
 (let (($x115 (= folt_0x7ffff1e340a0 (ite (bvslt node_0x7ffff1e32c60 node_0x7ffff1e33d40) (_ bv1 1) (_ bv0 1)))))
 (let (($x53535 (= node_0x7ffff1e32c60 LdMem_0x7ffff1e32e00)))
 (let (($x948 (= LdMem_0x7ffff1e32e00 StMem_0x7ffff1e1bf20)))
 (let (($x223 (= node_0x7ffff1e1b370 fmul_0x7ffff1e1b4f0)))
 (let (($x548 (= node_0x7ffff1e1af20 LdMem_0x7ffff1e19050)))
 (let (($x245 (= node_0x7ffff1e1af20 (_ bv0 64))))
 (let (($x244 (= node_0x7ffff1e1a650 (_ bv0 64))))
 (let (($x246 (or $x244 $x245)))
 (let ((?x242 (bvmul node_0x7ffff1e1a650 node_0x7ffff1e1af20)))
 (let (($x243 (= fmul_0x7ffff1e1b4f0 ?x242)))
 (let (($x249 (and $x243 (or $x246 (and (distinct fmul_0x7ffff1e1b4f0 (_ bv0 64)) true)))))
 (let (($x38847 (= node_0x7ffff1e1a650 si2f_0x7ffff1e1a7f0)))
 (let (($x254 (= si2f_0x7ffff1e1a7f0 ((_ sign_extend 32) node_0x7ffff1e197c0))))
 (let (($x920 (= node_0x7ffff1e197c0 f2si_0x7ffff1e19960)))
 (let ((?x258 ((_ extract 31 0) node_0x7ffff1e193a0)))
 (let (($x259 (= f2si_0x7ffff1e19960 ?x258)))
 (let (($x959 (= node_0x7ffff1e193a0 fdiv_0x7ffff1e19540)))
 (let (($x270 (or (or (= node_0x7ffff1e17fd0 (_ bv0 64)) (= node_0x7ffff1e18ed0 (_ bv0 64))) (and (distinct fdiv_0x7ffff1e19540 (_ bv0 64)) true))))
 (let (($x265 (= fdiv_0x7ffff1e19540 (bvsdiv node_0x7ffff1e17fd0 node_0x7ffff1e18ed0))))
 (let (($x271 (and $x265 $x270)))
 (let (($x826 (= LdMem_0x7ffff1e19050 StMem_0xb37f220)))
 (let (($x128 (= fsub_0x7ffff1e1b8c0 (bvsub node_0x7ffff1e1a1e0 node_0x7ffff1e1b370))))
 (let (($x947 (= node_0x7ffff1e1a1e0 LdMem_0x7ffff1e18170)))
 (let (($x38865 (= StMem_0x18a02d30 pcso_node_0x18a02b80)))
 (let (($x370 (= StMem_0xb3749e0 pcso_node_0x18a00f10)))
 (let (($x736 (= StMem_0x189fdd30 pcso_node_0x189fdb80)))
 (let (($x572 (= StMem_0x189fb9c0 pcso_node_0x189fb880)))
 (let (($x237 (= LdMem_0x7ffff1e18170 StMem_0x18a02d30)))
 (let (($x739 (= LdMem_0x7ffff1e18170 StMem_0xb3749e0)))
 (let (($x720 (= LdMem_0x7ffff1e18170 StMem_0x189fdd30)))
 (let (($x707 (= LdMem_0x7ffff1e18170 StMem_0x189fb9c0)))
 (let (($x218 (= and_0xb3a4900 (bvand R0xb2e9c60 R0x7ffff1e0a180))))
 (let (($x771 (= R0xb3a4670 and_0xb3a4900)))
 (let (($x926 (= R0xb3a5530 and_0xb3a58c0)))
 (let (($x924 (= R0x7ffff1e09490 node_0x7ffff1e091e0)))
 (let (($x207 (= and_0xb3a58c0 (bvand R0xb3a5000 R0x7ffff1e09490))))
 (let (($x944 (= R0xb3a5b80 and_0xb3a61b0)))
 (let (($x137 (= and_0xb3a61b0 (bvand R0xb3a5000 R0x7ffff1e097d0))))
 (let (($x945 (= R0xb3a5000 and_0xb3a52e0)))
 (let (($x929 (= R0xb3a4ba0 xor_0xb3a4d80)))
 (let (($x190 (= xor_0xb3a4d80 (bvxor R0x7ffff1e0a180 (_ bv1 1)))))
 (let (($x466 (= R0x7ffff1e0a180 and_0x7ffff1e0a500)))
 (let (($x927 (= R0x7ffff1e09ec0 node_0x7ffff1e09cd0)))
 (let (($x195 (= and_0x7ffff1e0a500 (bvand R0x7ffff1e097d0 R0x7ffff1e09ec0))))
 (let (($x143 (= and_0xb3a52e0 (bvand R0xb2e9c60 R0xb3a4ba0))))
 (let (($x939 (= R0xb2e9c60 xor_0xb3a4530)))
 (let (($x148 (= xor_0xb3a4530 (bvxor R0x7ffff1e0ae50 (_ bv1 1)))))
 (let (($x958 (= R0x7ffff1e0ae50 and_0x7ffff1e0b1d0)))
 (let (($x933 (= R0x7ffff1e0a970 xor_0x7ffff1e0ab80)))
 (let (($x177 (= xor_0x7ffff1e0ab80 (bvxor node_0x7ffff1e09cd0 (_ bv1 1)))))
 (let (($x931 (= node_0x7ffff1e09cd0 ieq_0x7ffff1e147c0)))
 (let (($x184 (= ieq_0x7ffff1e147c0 (ite (= node_0x7ffff1e14250 (_ bv1 32)) (_ bv1 1) (_ bv0 1)))))
 (let (($x153 (= and_0x7ffff1e0b1d0 (bvand R0x7ffff1e097d0 R0x7ffff1e0a970))))
 (let (($x955 (= R0x7ffff1e097d0 xor_0x7ffff1e099e0)))
 (let (($x158 (= xor_0x7ffff1e099e0 (bvxor node_0x7ffff1e091e0 (_ bv1 1)))))
 (let (($x937 (= node_0x7ffff1e091e0 ieq_0x7ffff1e11de0)))
 (let (($x163 (= node_0x7ffff1e119e0 (_ bv0 32))))
 (let ((?x164 (ite $x163 (_ bv1 1) (_ bv0 1))))
 (let (($x165 (= ieq_0x7ffff1e11de0 ?x164)))
 (let (($x938 (= node_0x7ffff1e119e0 LdMem_0x7ffff1e11b60)))
 (let (($x935 (= LdMem_0x7ffff1e11b60 StMem_0x189fbf70)))
 (let (($x970 (= node_0x7ffff1e0e0e0 folt_0x7ffff1e35b10)))
 (let (($x672 (or (or (= (_ bv0 64) (_ bv0 64)) (= node_0x7ffff1e35220 (_ bv0 64))) (and (distinct fmul_0x7ffff1e358e0 (_ bv0 64)) true))))
 (let (($x673 (and (= fmul_0x7ffff1e358e0 (bvmul (_ bv0 64) node_0x7ffff1e35220)) $x672)))
 (let (($x301 (= folt_0x7ffff1e35b10 (ite (bvslt node_0x7ffff1e34890 node_0x7ffff1e357b0) (_ bv1 1) (_ bv0 1)))))
 (let (($x686 (= node_0x7ffff1e34890 LdMem_0x7ffff1e34a30)))
 (let (($x998 (= StMem_0x18a03cd0 pcso_node_0x18a03b90)))
 (let (($x980 (= StMem_0x7ffff1e2f5c0 node_0x7ffff1e2edf0)))
 (let (($x580 (= fsub_0x7ffff1e2ef90 (bvsub node_0x7ffff1e2d800 node_0x7ffff1e2ea40))))
 (let (($x981 (= node_0x7ffff1e2d800 fadd_0x7ffff1e2d9a0)))
 (let (($x586 (= fadd_0x7ffff1e2d9a0 (bvadd node_0x7ffff1e2c280 node_0x7ffff1e2d450))))
 (let (($x983 (= node_0x7ffff1e2d450 fmul_0x7ffff1e2d5d0)))
 (let (($x598 (or (or (= node_0x7ffff1e2c6f0 (_ bv0 64)) (= node_0x7ffff1e2d000 (_ bv0 64))) (and (distinct fmul_0x7ffff1e2d5d0 (_ bv0 64)) true))))
 (let (($x593 (= fmul_0x7ffff1e2d5d0 (bvmul node_0x7ffff1e2c6f0 node_0x7ffff1e2d000))))
 (let (($x599 (and $x593 $x598)))
 (let ((?x505 ((_ sign_extend 32) ccso_node_0x7ffff1e1d2c0)))
 (let (($x602 (= si2f_0x7ffff1e2c890 ?x505)))
 (let (($x986 (= node_0x7ffff1e2ea40 fmul_0x7ffff1e2ebc0)))
 (let (($x997 (= node_0x7ffff1e2e5f0 LdMem_0x7ffff1e2b370)))
 (let (($x611 (= node_0x7ffff1e2e5f0 (_ bv0 64))))
 (let (($x610 (= node_0x7ffff1e2dbd0 (_ bv0 64))))
 (let (($x612 (or $x610 $x611)))
 (let ((?x608 (bvmul node_0x7ffff1e2dbd0 node_0x7ffff1e2e5f0)))
 (let (($x609 (= fmul_0x7ffff1e2ebc0 ?x608)))
 (let (($x615 (and $x609 (or $x612 (and (distinct fmul_0x7ffff1e2ebc0 (_ bv0 64)) true)))))
 (let (($x987 (= node_0x7ffff1e2dbd0 si2f_0x7ffff1e2dd70)))
 (let (($x620 (= si2f_0x7ffff1e2dd70 ((_ sign_extend 32) node_0x7ffff1e2bae0))))
 (let (($x988 (= node_0x7ffff1e2bae0 f2si_0x7ffff1e2bc80)))
 (let ((?x624 ((_ extract 31 0) node_0x7ffff1e2b6c0)))
 (let (($x625 (= f2si_0x7ffff1e2bc80 ?x624)))
 (let (($x989 (= node_0x7ffff1e2b6c0 fdiv_0x7ffff1e2b860)))
 (let (($x994 (= LdMem_0x7ffff1e2b370 StMem_0x18a07470)))
 (let (($x636 (or (or (= node_0x7ffff1e2a750 (_ bv0 64)) (= node_0x7ffff1e2b1f0 (_ bv0 64))) (and (distinct fdiv_0x7ffff1e2b860 (_ bv0 64)) true))))
 (let (($x631 (= fdiv_0x7ffff1e2b860 (bvsdiv node_0x7ffff1e2a750 node_0x7ffff1e2b1f0))))
 (let (($x637 (and $x631 $x636)))
 (let (($x990 (= node_0x7ffff1e2a750 fadd_0x7ffff1e2a8f0)))
 (let (($x642 (= fadd_0x7ffff1e2a8f0 (bvadd node_0x7ffff1e22b50 node_0x7ffff1e2a3a0))))
 (let (($x991 (= node_0x7ffff1e2a3a0 fmul_0x7ffff1e2a520)))
 (let (($x651 (or (or (= node_0x7ffff1e22fc0 (_ bv0 64)) (= node_0x7ffff1e29f50 (_ bv0 64))) (and (distinct fmul_0x7ffff1e2a520 (_ bv0 64)) true))))
 (let (($x647 (= fmul_0x7ffff1e2a520 (bvmul node_0x7ffff1e22fc0 node_0x7ffff1e29f50))))
 (let (($x652 (and $x647 $x651)))
 (let (($x429 (= StMem_0x7ffff1e296a0 node_0x7ffff1e28ed0)))
 (let (($x482 (= fsub_0x7ffff1e29070 (bvsub node_0x7ffff1e279f0 node_0x7ffff1e28b20))))
 (let (($x907 (= node_0x7ffff1e279f0 fadd_0x7ffff1e27b90)))
 (let (($x488 (= fadd_0x7ffff1e27b90 (bvadd node_0x7ffff1e26470 node_0x7ffff1e27640))))
 (let (($x909 (= node_0x7ffff1e27640 fmul_0x7ffff1e277c0)))
 (let (($x500 (or (or (= node_0x7ffff1e268e0 (_ bv0 64)) (= node_0x7ffff1e271f0 (_ bv0 64))) (and (distinct fmul_0x7ffff1e277c0 (_ bv0 64)) true))))
 (let (($x495 (= fmul_0x7ffff1e277c0 (bvmul node_0x7ffff1e268e0 node_0x7ffff1e271f0))))
 (let (($x501 (and $x495 $x500)))
 (let (($x506 (= si2f_0x7ffff1e26a80 ?x505)))
 (let (($x710 (= node_0x7ffff1e268e0 si2f_0x7ffff1e26a80)))
 (let (($x767 (= node_0x7ffff1e28b20 fmul_0x7ffff1e28ca0)))
 (let (($x977 (= node_0x7ffff1e286d0 LdMem_0x7ffff1e255b0)))
 (let (($x515 (= node_0x7ffff1e286d0 (_ bv0 64))))
 (let (($x514 (= node_0x7ffff1e27dc0 (_ bv0 64))))
 (let (($x516 (or $x514 $x515)))
 (let ((?x512 (bvmul node_0x7ffff1e27dc0 node_0x7ffff1e286d0)))
 (let (($x513 (= fmul_0x7ffff1e28ca0 ?x512)))
 (let (($x519 (and $x513 (or $x516 (and (distinct fmul_0x7ffff1e28ca0 (_ bv0 64)) true)))))
 (let (($x187 (= node_0x7ffff1e27dc0 si2f_0x7ffff1e27f60)))
 (let (($x524 (= si2f_0x7ffff1e27f60 ((_ sign_extend 32) node_0x7ffff1e25cd0))))
 (let (($x765 (= node_0x7ffff1e25cd0 f2si_0x7ffff1e25e70)))
 (let ((?x528 ((_ extract 31 0) node_0x7ffff1e258b0)))
 (let (($x529 (= f2si_0x7ffff1e25e70 ?x528)))
 (let (($x622 (= node_0x7ffff1e258b0 fdiv_0x7ffff1e25a50)))
 (let (($x915 (= node_0x7ffff1e25430 LdMem_0x7ffff1e255b0)))
 (let (($x976 (= LdMem_0x7ffff1e255b0 StMem_0x18a06fb0)))
 (let (($x540 (or (or (= node_0x7ffff1e24900 (_ bv0 64)) (= node_0x7ffff1e25430 (_ bv0 64))) (and (distinct fdiv_0x7ffff1e25a50 (_ bv0 64)) true))))
 (let (($x535 (= fdiv_0x7ffff1e25a50 (bvsdiv node_0x7ffff1e24900 node_0x7ffff1e25430))))
 (let (($x541 (and $x535 $x540)))
 (let (($x819 (= node_0x7ffff1e24900 fadd_0x7ffff1e24aa0)))
 (let (($x547 (= fadd_0x7ffff1e24aa0 (bvadd node_0x7ffff1e22b50 node_0x7ffff1e23d40))))
 (let (($x709 (= node_0x7ffff1e23d40 fmul_0x7ffff1e246d0)))
 (let (($x559 (or (or (= node_0x7ffff1e22fc0 (_ bv0 64)) (= node_0x7ffff1e23920 (_ bv0 64))) (and (distinct fmul_0x7ffff1e246d0 (_ bv0 64)) true))))
 (let (($x554 (= fmul_0x7ffff1e246d0 (bvmul node_0x7ffff1e22fc0 node_0x7ffff1e23920))))
 (let (($x560 (and $x554 $x559)))
 (let (($x563 (= si2f_0x7ffff1e23160 ?x505)))
 (let (($x832 (= node_0x7ffff1e22fc0 si2f_0x7ffff1e23160)))
 (let (($x918 (= StMem_0x7ffff1e21bf0 node_0x7ffff1e21400)))
 (let (($x408 (= fsub_0x7ffff1e215a0 (bvsub node_0x7ffff1e1fee0 node_0x7ffff1e21050))))
 (let (($x973 (= node_0x7ffff1e1fee0 LdMem_0x7ffff1e1e6c0)))
 (let (($x806 (= StMem_0x18a03140 pcso_node_0x18a02f90)))
 (let (($x699 (= StMem_0xb3757c0 pcso_node_0x18a01050)))
 (let (($x786 (= StMem_0x189fe140 pcso_node_0x189fdf90)))
 (let (($x822 (= StMem_0x189fbc10 pcso_node_0x189fbad0)))
 (let (($x468 (= LdMem_0x7ffff1e1e6c0 StMem_0x18a03140)))
 (let (($x371 (= LdMem_0x7ffff1e1e6c0 StMem_0xb3757c0)))
 (let (($x807 (= LdMem_0x7ffff1e1e6c0 StMem_0x189fe140)))
 (let (($x974 (= LdMem_0x7ffff1e1e6c0 StMem_0x189fbc10)))
 (let (($x694 (= node_0x7ffff1e21050 fmul_0x7ffff1e211d0)))
 (let (($x885 (= node_0x7ffff1e20c50 LdMem_0x7ffff1e1efd0)))
 (let (($x439 (= node_0x7ffff1e20c50 (_ bv0 64))))
 (let (($x438 (= node_0x7ffff1e20300 (_ bv0 64))))
 (let (($x440 (or $x438 $x439)))
 (let ((?x436 (bvmul node_0x7ffff1e20300 node_0x7ffff1e20c50)))
 (let (($x443 (and (= fmul_0x7ffff1e211d0 ?x436) (or $x440 (and (distinct fmul_0x7ffff1e211d0 (_ bv0 64)) true)))))
 (let (($x740 (= node_0x7ffff1e20300 si2f_0x7ffff1e204a0)))
 (let (($x448 (= si2f_0x7ffff1e204a0 ((_ sign_extend 32) node_0x7ffff1e1f740))))
 (let (($x975 (= node_0x7ffff1e1f740 f2si_0x7ffff1e1f8e0)))
 (let ((?x452 ((_ extract 31 0) node_0x7ffff1e1f320)))
 (let (($x453 (= f2si_0x7ffff1e1f8e0 ?x452)))
 (let (($x433 (= node_0x7ffff1e1f320 fdiv_0x7ffff1e1f4c0)))
 (let (($x464 (or (or (= node_0x7ffff1e1e520 (_ bv0 64)) (= node_0x7ffff1e1ee50 (_ bv0 64))) (and (distinct fdiv_0x7ffff1e1f4c0 (_ bv0 64)) true))))
 (let (($x459 (= fdiv_0x7ffff1e1f4c0 (bvsdiv node_0x7ffff1e1e520 node_0x7ffff1e1ee50))))
 (let (($x465 (and $x459 $x464)))
 (let (($x38766 (= node_0x7ffff1e1ee50 LdMem_0x7ffff1e1efd0)))
 (let (($x798 (= LdMem_0x7ffff1e1efd0 StMem_0x18a05c00)))
 (let (($x837 (= LdMem_0x7ffff1e34a30 StMem_0x18a03cd0)))
 (let (($x964 (= LdMem_0x7ffff1e34a30 StMem_0x7ffff1e2f5c0)))
 (let (($x38868 (= LdMem_0x7ffff1e34a30 StMem_0x7ffff1e296a0)))
 (let (($x690 (= LdMem_0x7ffff1e34a30 StMem_0x7ffff1e21bf0)))
 (let (($x394 (= and_0xb3adb40 (bvand R0xb3acbc0 R0x7ffff1e0bb20))))
 (let (($x723 (= R0xb3ad7b0 and_0xb3adb40)))
 (let (($x379 (= and_0xb3ac3e0 (bvand R0xb3abd80 R0x7ffff1e0c5a0))))
 (let (($x751 (= R0xb3ac0e0 and_0xb3ac3e0)))
 (let (($x838 (= R0xb3ad160 and_0xb3ad4f0)))
 (let (($x884 (= R0x7ffff1e0b6f0 node_0x7ffff1e0b4c0)))
 (let (($x310 (= and_0xb3ad4f0 (bvand R0xb3acbc0 R0x7ffff1e0b6f0))))
 (let (($x102 (= R0xb3acbc0 and_0xb3acf10)))
 (let (($x966 (= R0xb3ac6f0 xor_0xb3ac8d0)))
 (let (($x362 (= xor_0xb3ac8d0 (bvxor R0x7ffff1e0c5a0 (_ bv1 1)))))
 (let (($x329 (= R0x7ffff1e0c5a0 and_0x7ffff1e0c920)))
 (let (($x841 (= R0x7ffff1e0c280 node_0x7ffff1e0c050)))
 (let (($x367 (= and_0x7ffff1e0c920 (bvand R0x7ffff1e0bb20 R0x7ffff1e0c280))))
 (let (($x316 (= and_0xb3acf10 (bvand R0xb3abd80 R0xb3ac6f0))))
 (let (($x785 (= R0xb3abd80 xor_0xb3abf60)))
 (let (($x321 (= xor_0xb3abf60 (bvxor R0x7ffff1e0d200 (_ bv1 1)))))
 (let (($x829 (= R0x7ffff1e0d200 and_0x7ffff1e0d580)))
 (let (($x695 (= R0x7ffff1e0cd20 xor_0x7ffff1e0cf30)))
 (let (($x348 (= xor_0x7ffff1e0cf30 (bvxor node_0x7ffff1e0c050 (_ bv1 1)))))
 (let (($x965 (= node_0x7ffff1e0c050 ieq_0x7ffff1e223c0)))
 (let ((?x353 (ite (= node_0x7ffff1e21fc0 (_ bv1 32)) (_ bv1 1) (_ bv0 1))))
 (let (($x354 (= ieq_0x7ffff1e223c0 ?x353)))
 (let ((?x342 (bvsrem node_0x7ffff1e197c0 (_ bv3 32))))
 (let (($x357 (= srem_0x7ffff1e22160 ?x342)))
 (let (($x327 (= and_0x7ffff1e0d580 (bvand R0x7ffff1e0bb20 R0x7ffff1e0cd20))))
 (let (($x870 (= R0x7ffff1e0bb20 xor_0x7ffff1e0bd30)))
 (let (($x332 (= xor_0x7ffff1e0bd30 (bvxor node_0x7ffff1e0b4c0 (_ bv1 1)))))
 (let (($x336 (= node_0x7ffff1e1d930 (_ bv0 32))))
 (let ((?x337 (ite $x336 (_ bv1 1) (_ bv0 1))))
 (let (($x338 (= ieq_0x7ffff1e1dd50 ?x337)))
 (let (($x343 (= srem_0x7ffff1e1dad0 ?x342)))
 (let (($x660 (= node_0x7ffff1e1d930 srem_0x7ffff1e1dad0)))
 (and $x660 $x343 $x338 (= node_0x7ffff1e0b4c0 ieq_0x7ffff1e1dd50) $x332 $x870 $x327 (= node_0x7ffff1e21fc0 srem_0x7ffff1e22160) $x357 $x354 $x965 $x348 $x695 $x829 $x321 $x785 $x316 $x367 $x841 $x329 $x362 $x966 $x102 $x310 $x884 $x838 (or (not (= R0xb3ad160 (_ bv1 1))) $x690) (or (not (= R0xb3ac0e0 (_ bv1 1))) $x38868) $x751 $x379 (or (not (= R0x7ffff1e0d200 (_ bv1 1))) $x964) (or (not (= R0xb3ad7b0 (_ bv1 1))) $x837) $x723 $x394 (or $x690 $x38868 $x964 $x837) (or (not (= R0x7ffff1e08390 (_ bv1 1))) $x798) $x798 (= StMem_0x18a05c00 parg_node_0x18a06250) $x38766 $x465 (= node_0x7ffff1e1e520 LdMem_0x7ffff1e1e6c0) $x433 $x453 $x975 $x448 $x740 $x443 $x885 $x694 (or (not (= R0xb3a5b80 (_ bv1 1))) $x974) (or (not (= R0xb3a5530 (_ bv1 1))) $x807) (or (not (= R0xb3a4670 (_ bv1 1))) $x371) (or (not (= R0x7ffff1e0ae50 (_ bv1 1))) $x468) (or $x974 $x807 $x371 $x468) $x822 $x786 $x699 $x806 $x973 $x408 (= node_0x7ffff1e21400 fsub_0x7ffff1e215a0) $x918 $x832 $x563 $x560 (= node_0x7ffff1e23920 LdMem_0x7ffff1e1efd0) $x709 $x547 (= node_0x7ffff1e22b50 LdMem_0x7ffff1e1e6c0) $x819 $x541 (or (not (= R0x7ffff1e08390 (_ bv1 1))) $x976) $x976 (= StMem_0x18a06fb0 parg_node_0x18a070c0) $x915 $x622 $x529 $x765 $x524 $x187 $x519 $x977 $x767 $x710 $x506 $x501 (= node_0x7ffff1e271f0 LdMem_0x7ffff1e1efd0) $x909 $x488 (= node_0x7ffff1e26470 LdMem_0x7ffff1e1e6c0) $x907 $x482 (= node_0x7ffff1e28ed0 fsub_0x7ffff1e29070) $x429 $x652 (= node_0x7ffff1e29f50 LdMem_0x7ffff1e255b0) $x991 $x642 $x990 $x637 (or (not (= R0x7ffff1e08390 (_ bv1 1))) $x994) $x994 (= StMem_0x18a07470 parg_node_0x18a07580) (= node_0x7ffff1e2b1f0 LdMem_0x7ffff1e2b370) $x989 $x625 $x988 $x620 $x987 $x615 $x997 $x986 (= node_0x7ffff1e2c6f0 si2f_0x7ffff1e2c890) $x602 $x599 (= node_0x7ffff1e2d000 LdMem_0x7ffff1e255b0) $x983 $x586 (= node_0x7ffff1e2c280 LdMem_0x7ffff1e1e6c0) $x981 $x580 (= node_0x7ffff1e2edf0 fsub_0x7ffff1e2ef90) $x980 $x998 $x686 $x301 $x673 (= node_0x7ffff1e35220 LdMem_0x7ffff1e19050) (= node_0x7ffff1e357b0 fmul_0x7ffff1e358e0) $x970 (or (not (= R0x7ffff1e08390 (_ bv1 1))) $x935) $x935 (= StMem_0x189fbf70 parg_node_0x189fc080) $x938 $x165 $x937 $x158 $x955 $x153 $x184 (= node_0x7ffff1e14250 LdMem_0x7ffff1e11b60) $x931 $x177 $x933 $x958 $x148 $x939 $x143 $x195 $x927 $x466 $x190 $x929 $x945 $x137 $x944 (or (not (= R0xb3a5b80 (_ bv1 1))) $x707) (or (not (= R0xb3a5530 (_ bv1 1))) $x720) $x207 $x924 $x926 (or (not (= R0xb3a4670 (_ bv1 1))) $x739) $x771 $x218 (or (not (= R0x7ffff1e0ae50 (_ bv1 1))) $x237) (or $x707 $x720 $x739 $x237) $x572 $x736 $x370 $x38865 $x947 $x128 (or (not (= R0x7ffff1e08390 (_ bv1 1))) $x826) $x826 (= StMem_0xb37f220 parg_node_0x18a037e0) (= node_0x7ffff1e18ed0 LdMem_0x7ffff1e19050) $x271 (= node_0x7ffff1e17fd0 LdMem_0x7ffff1e18170) $x959 $x259 $x920 $x254 $x38847 $x249 $x548 $x223 (= node_0x7ffff1e1b720 fsub_0x7ffff1e1b8c0) (= StMem_0x7ffff1e1bf20 node_0x7ffff1e1b720) (or (not (= R0x7ffff1e08390 (_ bv1 1))) $x948) $x948 $x53535 $x115 $x291 (= node_0x7ffff1e33760 LdMem_0x7ffff1e19050) (= node_0x7ffff1e33d40 fmul_0x7ffff1e33e70) $x53534))))))))))))))))))))))))))))))))))))))))))))))))))))))))))))))))))))))))))))))))))))))))))))))))))))))))))))))))))))))))))))))))))))))))))))))))))))))))))))))))))))))))))))))))))))))))))))))))))))))))))))))))
(assert
 (= parg_node_0xb398ed0_CS0x42ed9a0 node_0x18a054b0))
(assert
 (let (($x1181 (= node_0x18a054b0 LdMem_0x18a04e60)))
 (let (($x1182 (= LdMem_0x18a04e60 StMem_0x18a04fd0)))
 (and (or (not (= R0x7ffff1e08390 (_ bv1 1))) $x1182) $x1182 (= StMem_0x18a04fd0 parg_node_0x18a05180) $x1181))))
(assert
 (= return_node_0x7ffff1e429b0_CS0x42ed9a0 ccso_node_0x7ffff1e1d2c0))
(assert
 (= node_0xfd66af0_CS0x42eafc0 pcso_node_0x189fb880))
(assert
 (= carg_node_0x7ffff1c37920_CS0x42eb808 node_0x7ffff1e12570))
(assert
 (let (($x880 (= fadd_0x7ffff1e12710 (bvadd ccso_node_0x7ffff1e0d9c0 (_ bv10000 64)))))
 (let (($x1192 (= node_0x7ffff1e12570 fadd_0x7ffff1e12710)))
 (and $x1192 $x880))))
(assert
 (= node_0xfe2db50_CS0x42eb808 pcso_node_0x189fdb80))
(assert
 (= carg_node_0x7ffff1c37920_CS0x42ec0f8 node_0x7ffff1e15140))
(assert
 (let (($x893 (= fadd_0x7ffff1e152e0 (bvadd ccso_node_0x7ffff1e14d60 (_ bv10000 64)))))
 (and (= node_0x7ffff1e15140 fadd_0x7ffff1e152e0) $x893)))
(assert
 (= node_0xfe2db50_CS0x42ec0f8 pcso_node_0x18a00f10))
(assert
 (= carg_node_0x7ffff1c37920_CS0x42ec5f8 node_0x7ffff1e15140))
(assert
 (= node_0xfe2db50_CS0x42ec5f8 pcso_node_0x18a02b80))
(assert
 (= node_0xfd66e40_CS0x42eafc0 pcso_node_0x189fbad0))
(assert
 (and (distinct node_0x7ffff1e105f0 (_ bv0 64)) true))
(maximize node_0x7ffff1e0c050)
(minimize node_0x7ffff1e15140)
(maximize StMem_0x7ffff1e21bf0)
(minimize node_0x7ffff1e23d40)
(maximize R0xb3a4ba0)
(maximize node_0x7ffff1e105f0)
(minimize fmul_0x7ffff1e211d0)
(minimize StMem_0x189fe140)
(minimize node_0x7ffff1e1b370)
(minimize node_0x7ffff1e22fc0)
(maximize fmul_0x7ffff1e246d0)
(minimize ccso_node_0x7ffff1e14d60)
(minimize node_0x7ffff1e1d930)
(maximize node_0x7ffff1e24900)
(maximize StMem_0x189fb9c0)
(maximize StMem_0x7ffff1e2f5c0)
(minimize node_0x7ffff1e35220)
(minimize pcso_node_0x189fdf90)
(maximize srem_0x7ffff1e22160)
(maximize pcso_node_0x18a03b90)
(maximize node_0x7ffff1e2dbd0)
(maximize node_0x7ffff1e27dc0)
(maximize and_0x7ffff1e0a500)
(minimize srem_0x7ffff1e1dad0)
(minimize carg_node_0x7ffff1c37920_CS0x42eb808)
(maximize pcso_node_0x189fdf90)
(maximize node_0x7ffff1e25cd0)
(minimize StMem_0xb3749e0)
(maximize xor_0x7ffff1e0ab80)
(maximize node_0x7ffff1e33d40)
(minimize node_0x7ffff1e33760)
(minimize node_0x7ffff1e105f0)
(maximize parg_node_0x18a05180)
(minimize node_0x7ffff1e286d0)
(maximize xor_0xb3abf60)
(minimize xor_0x7ffff1e099e0)
(maximize StMem_0x7ffff1e1bf20)
(minimize fmul_0x7ffff1e2ebc0)
(maximize parg_node_0x18a070c0)
(minimize node_0x7ffff1e119e0)
(maximize parg_node_0x18a037e0)
(check-sat)
(get-objectives)
